p tdp 20 96
1 4
1 7
1 9
1 10
1 11
1 12
2 4
2 5
2 8
2 9
2 12
2 15
2 17
2 18
2 19
3 5
3 9
3 10
3 11
3 12
3 16
3 20
4 8
4 11
4 12
4 14
4 15
4 18
4 19
4 20
5 6
5 8
5 9
5 10
5 11
5 13
5 15
5 16
5 17
5 18
5 19
6 8
6 12
6 13
6 14
6 15
6 16
6 17
6 20
7 8
7 9
7 11
7 12
7 13
7 15
7 17
7 20
8 11
8 16
8 18
8 19
8 20
9 10
9 11
9 14
9 17
9 19
9 20
10 14
10 15
10 16
10 18
10 20
11 13
11 14
11 20
12 14
12 15
12 17
12 19
12 20
13 14
13 16
13 19
14 15
14 17
14 19
14 20
15 20
16 17
16 18
16 19
17 18
17 19
18 20
19 20
